44 44
8 9
3 10
7 2
1 5
1 3
6 6
4 6
5 4
6 3
6 6
9 3
3 2
9 4
10 8
9 5
10 6
4 2
1 7
4 4
1 2
4 2
4 4
8 4
1 3
7 5
9 9
6 5
7 6
4 6
7 6
5 7
10 1
6 9
7 1
4 9
3 10
2 6
3 7
1 6
3 6
4 6
5 1
7 4
8 9
13 16 89
10 19 96
10 15 87
14 11 76
15 12 77
14 10 56
13 12 76
19 15 73
14 14 84
16 16 86
20 14 85
18 10 66
14 14 87
19 11 63
18 11 100
20 10 74
18 10 61
10 20 56
15 17 67
15 12 82
19 20 99
18 15 66
16 15 67
19 18 60
13 10 87
11 14 52
11 12 86
14 16 98
12 18 71
18 12 93
11 20 64
11 18 94
18 10 72
18 11 86
11 13 97
15 20 85
18 18 94
20 14 58
10 16 68
11 16 71
11 14 94
20 10 88
18 16 87
11 20 74
